Route #1: 1 8 17 19 30 20 33 22 42 1
Route #2: 1 2 26 29 13 4 21 1
Route #3: 1 18 6 41 36 28 32 44 16 1
Route #4: 1 34 40 25 27 15 37 3 10 1
Route #5: 1 5 39 23 43 31 12 14 1
Route #6: 1 24 11 9 1
Route #7: 1 7 35 38 1
cost: 1010
